branch-and-cut/resultados/I080/i080-134.sol
2070
13
63 58
19 43
4 32
1 40
32 43
7 58
40 19
40 3
32 58
58 8
6 19
40 5
2 63
